%chk=C5-test.chk
# opt(maxcycles=300,MaxStep=10) freq scf(maxcycle=300,xqc) UWB97XD/DEF2SVPP scrf(smd,solvent=Heptane) Temperature=300

Title: Geometrical optimization and frequency calculation

1 1
C         -2.86758        0.44722        0.00000
C         -1.79758        0.44722        0.00000
H         -3.22425       -0.49878        0.35038
H         -3.22425        0.61679       -0.99445
C         -3.22425        1.22366        0.64407
H         -1.44092       -0.32922       -0.64407
H         -1.44092        0.27766        0.99445
O         -1.44092        1.39322       -0.35038
O         -2.86758        1.05409        1.63852
H         -4.29425        1.22366        0.64407
H         -2.86759        2.16967        0.29369
H         -1.76425        1.54694       -1.25189
H         -3.19092        0.19650        1.95615

