%chk=CH4.chk
# opt(maxcycles=300,MaxStep=10) freq scf(maxcycle=300,xqc) UWB97XD/DEF2SVPP scrf(smd,solvent=Heptane) Temperature=300

Title: Geometrical optimization and frequency calculation

1 1
C         -3.15635        1.18864        0.00000
H         -2.08635        1.18864        0.00000
H         -3.51301        1.45464       -0.97311
H         -3.51302        1.89838        0.71691
H         -3.51302        0.21291        0.25619

