%chk=opt_freq.chk
# scf(maxcycle=300,xqc) UwB97XD/Def2SVPP

Title: Normal single point calculation

0 1
# Generated by Gaussian Extractor
# Lines starting with # are comments

# Basic parameters
calc_type = opt_freq
functional = UWB97XD
basis = def2SVPP
charge = 1
mult = 1
extension = .gau

# Solvent parameters (optional)
 solvent = Heptane 
 solvent_model = smd

# print_level = P
route_extra_keywords = Temperature=300 
# Or with delimiters: Int=UltraFine, SCF=Conver=8; Opt=Loose

# Custom cycle and optimization parameters (optional)
# Override defaults for SCF, OPT, IRC keywords
# scf_maxcycle = 500
# opt_maxcycles = 300
opt_maxstep = 10

# Multi-line tail (for custom basis sets, etc.)
# tail = 
# additional lines of keywords
# additional lines of keywords
# additional lines of keywords
#
# Or use punctuation marks to preserve blank lines:
# tail =
# (
# additional lines of keywords
# 
# additional lines of keywords
# additional lines of keywords
# )

# Multi-line extra_options section (for additional input sections, etc.)
# extra_options = 
# Additional keywords or sections here
#
# Or use punctuation marks to preserve blank lines:
# extra_options =
# (
# Additional keywords
# 
# More sections
# )


